c description: Random 3-CNF over 12 variables and 24 clauses
p cnf 12 24
-3 -5 6 0
-5 6 7 0
-1 8 11 0
-6 -7 -8 0
-1 -3 11 0
-1 -3 5 0
8 11 12 0
-1 7 -12 0
-6 -9 12 0
-4 9 -11 0
-1 3 -7 0
-7 8 -12 0
5 7 -9 0
1 -7 -12 0
4 8 9 0
1 7 -8 0
-8 9 -12 0
-3 5 6 0
-2 -3 10 0
1 -2 8 0
-1 5 -6 0
-3 4 -7 0
-5 -6 11 0
-1 9 10 0